p tdp 116 115
51 95
25 91
52 90
50 111
85 95
69 41
53 86
24 7
108 109
1 2
27 8
36 76
60 15
97 94
66 48
94 9
26 32
68 107
64 110
50 92
72 27
50 75
12 114
16 85
29 20
52 115
47 81
73 29
56 84
100 91
82 101
104 100
31 98
70 116
42 62
80 64
63 28
20 57
18 79
83 93
72 58
8 5
96 70
4 78
17 13
112 61
37 62
113 24
28 17
57 105
55 58
10 106
23 59
69 2
103 30
90 3
65 63
18 30
110 89
91 13
69 106
17 77
111 49
82 68
80 48
67 45
103 6
50 26
35 54
110 107
35 61
38 108
115 78
62 56
99 60
14 105
21 14
22 44
7 53
67 105
5 43
49 97
71 33
15 90
46 44
93 116
11 101
42 98
12 106
39 53
102 74
113 103
8 88
33 46
92 91
15 102
59 35
56 103
40 104
38 50
45 27
34 40
38 76
105 112
47 73
42 20
74 11
19 87
63 70
70 39
85 87
53 41
95 4
116 33
47 87
